p min 49 520
n 6 -769156.0
n 7 25985.0
n 8 25985.0
n 9 20788.0
n 10 20788.0
n 12 10394.0
n 13 10394.0
n 15 5197.0
n 16 5197.0
n 18 20788.0
n 19 15591.0
n 20 15591.0
n 21 15591.0
n 23 15591.0
n 24 10394.0
n 26 20788.0
n 27 25985.0
n 28 25985.0
n 29 20788.0
n 30 20788.0
n 31 20788.0
n 33 31182.0
n 34 31182.0
n 36 36379.0
n 37 36379.0
n 38 31182.0
n 39 36379.0
n 41 20788.0
n 42 57167.0
n 43 62364.0
n 44 5197.0
n 45 41576.0
n 46 10394.0
n 47 15591.0
a 0 1 0 364449.0 1.0
a 0 1 0 364449.0 1.0
a 0 2 0 364449.0 1.0
a 0 3 0 364449.0 1.0
a 0 4 0 769156.0 1.0
a 0 4 0 0.0 0.0
a 0 8 0 364449.0 32874.0
a 0 42 0 364449.0 48303.0
a 0 42 0 0.0 0.0
a 0 1 0 0.0 0.0
a 0 1 0 0.0 0.0
a 0 2 0 364449.0 1.0
a 0 2 0 0.0 0.0
a 0 2 0 0.0 0.0
a 0 3 0 364449.0 1.0
a 0 3 0 0.0 0.0
a 0 3 0 0.0 0.0
a 0 4 0 769156.0 1.0
a 0 4 0 0.0 0.0
a 0 8 0 0.0 0.0
a 0 8 0 0.0 0.0
a 0 8 0 364449.0 33040.0
a 0 42 0 364449.0 49207.0
a 0 42 0 0.0 0.0
a 1 2 0 364449.0 1.0
a 1 0 0 0.0 0.0
a 1 0 0 0.0 0.0
a 1 0 0 364449.0 1.0
a 1 0 0 364449.0 1.0
a 1 2 0 364449.0 1.0
a 1 3 0 364449.0 1.0
a 1 4 0 769156.0 1.0
a 1 20 0 364449.0 402908.0
a 1 39 0 364449.0 390464.0
a 1 2 0 0.0 0.0
a 1 2 0 0.0 0.0
a 1 3 0 364449.0 1.0
a 1 3 0 0.0 0.0
a 1 3 0 0.0 0.0
a 1 4 0 769156.0 1.0
a 1 4 0 0.0 0.0
a 1 4 0 0.0 0.0
a 1 20 0 364449.0 408898.0
a 1 20 0 0.0 0.0
a 1 20 0 0.0 0.0
a 1 39 0 364449.0 396263.0
a 1 39 0 0.0 0.0
a 1 39 0 0.0 0.0
a 2 3 0 364449.0 1.0
a 2 1 0 0.0 0.0
a 2 0 0 0.0 0.0
a 2 1 0 0.0 0.0
a 2 0 0 0.0 0.0
a 2 0 0 364449.0 1.0
a 2 0 0 364449.0 1.0
a 2 1 0 364449.0 1.0
a 2 1 0 364449.0 1.0
a 2 3 0 364449.0 1.0
a 2 4 0 769156.0 1.0
a 2 16 0 364449.0 117551.0
a 2 32 0 364449.0 387179.0
a 2 3 0 0.0 0.0
a 2 3 0 0.0 0.0
a 2 4 0 769156.0 1.0
a 2 4 0 0.0 0.0
a 2 4 0 0.0 0.0
a 2 16 0 0.0 0.0
a 2 16 0 0.0 0.0
a 2 16 0 364449.0 121226.0
a 2 32 0 364449.0 389442.0
a 2 32 0 0.0 0.0
a 2 32 0 0.0 0.0
a 3 27 0 364449.0 394061.0
a 3 2 0 0.0 0.0
a 3 0 0 0.0 0.0
a 3 1 0 0.0 0.0
a 3 2 0 0.0 0.0
a 3 0 0 0.0 0.0
a 3 0 0 364449.0 1.0
a 3 0 0 364449.0 1.0
a 3 1 0 0.0 0.0
a 3 1 0 364449.0 1.0
a 3 1 0 364449.0 1.0
a 3 2 0 364449.0 1.0
a 3 2 0 364449.0 1.0
a 3 4 0 769156.0 1.0
a 3 14 0 364449.0 52849.0
a 3 27 0 364449.0 390156.0
a 3 4 0 769156.0 1.0
a 3 4 0 0.0 0.0
a 3 4 0 0.0 0.0
a 3 14 0 364449.0 52131.0
a 3 14 0 0.0 0.0
a 3 14 0 0.0 0.0
a 3 27 0 0.0 0.0
a 3 27 0 0.0 0.0
a 4 0 0 0.0 0.0
a 4 0 0 769156.0 1.0
a 4 1 0 0.0 0.0
a 4 2 0 0.0 0.0
a 4 3 0 0.0 0.0
a 4 0 0 0.0 0.0
a 4 0 0 769156.0 1.0
a 4 1 0 0.0 0.0
a 4 1 0 769156.0 1.0
a 4 1 0 769156.0 1.0
a 4 2 0 0.0 0.0
a 4 2 0 769156.0 1.0
a 4 2 0 769156.0 1.0
a 4 3 0 0.0 0.0
a 4 3 0 769156.0 1.0
a 4 3 0 769156.0 1.0
a 5 6 0 728897.0 1.0
a 5 6 0 728897.0 1.0
a 5 7 0 769156.0 1.0
a 5 7 0 0.0 0.0
a 5 10 0 364449.0 385751.0
a 5 20 0 364449.0 3265.0
a 5 6 0 0.0 0.0
a 5 6 0 0.0 0.0
a 5 7 0 769156.0 1.0
a 5 7 0 0.0 0.0
a 5 10 0 364449.0 374871.0
a 5 10 0 0.0 0.0
a 5 10 0 0.0 0.0
a 5 20 0 364449.0 3249.0
a 5 20 0 0.0 0.0
a 5 20 0 0.0 0.0
a 6 29 0 364449.0 21087.0
a 6 5 0 0.0 0.0
a 6 5 0 0.0 0.0
a 6 5 0 728897.0 1.0
a 6 5 0 728897.0 1.0
a 6 7 0 717186.0 1.0
a 6 29 0 364449.0 21054.0
a 6 37 0 364449.0 20623.0
a 6 7 0 743171.0 1.0
a 6 7 0 0.0 0.0
a 6 7 0 -77955.0 0.0
a 6 29 0 0.0 0.0
a 6 29 0 0.0 0.0
a 6 37 0 364449.0 20741.0
a 6 37 0 0.0 0.0
a 6 37 0 0.0 0.0
a 7 5 0 0.0 0.0
a 7 5 0 769156.0 1.0
a 7 6 0 51970.0 0.0
a 7 5 0 0.0 0.0
a 7 5 0 769156.0 1.0
a 7 6 0 25985.0 0.0
a 7 6 0 769156.0 1.0
a 7 6 0 847111.0 1.0
a 8 9 0 364449.0 1.0
a 8 0 0 0.0 0.0
a 8 0 0 364449.0 33040.0
a 8 0 0 364449.0 32874.0
a 8 0 0 0.0 0.0
a 8 9 0 364449.0 1.0
a 8 10 0 364449.0 2.0
a 8 11 0 364449.0 2.0
a 8 12 0 769156.0 1.0
a 8 12 0 0.0 0.0
a 8 25 0 364449.0 397223.0
a 8 9 0 0.0 0.0
a 8 9 0 0.0 0.0
a 8 10 0 364449.0 2.0
a 8 10 0 0.0 0.0
a 8 10 0 0.0 0.0
a 8 11 0 364449.0 2.0
a 8 11 0 0.0 0.0
a 8 11 0 0.0 0.0
a 8 12 0 769156.0 1.0
a 8 12 0 0.0 0.0
a 8 25 0 364449.0 395716.0
a 8 25 0 0.0 0.0
a 8 25 0 0.0 0.0
a 9 10 0 364449.0 3.0
a 9 8 0 0.0 0.0
a 9 8 0 0.0 0.0
a 9 8 0 364449.0 1.0
a 9 8 0 364449.0 1.0
a 9 10 0 364449.0 3.0
a 9 11 0 364449.0 2.0
a 9 12 0 769156.0 1.0
a 9 14 0 218933.0 75820.0
a 9 17 0 364449.0 142261.0
a 9 35 0 364449.0 204987.0
a 9 10 0 0.0 0.0
a 9 10 0 0.0 0.0
a 9 11 0 364449.0 3.0
a 9 11 0 0.0 0.0
a 9 11 0 0.0 0.0
a 9 12 0 997824.0 1.0
a 9 12 0 457336.0 0.0
a 9 12 0 686004.0 0.0
a 9 14 0 291691.0 75227.0
a 9 14 0 0.0 0.0
a 9 14 0 -218274.0 0.0
a 9 17 0 364449.0 141551.0
a 9 17 0 0.0 0.0
a 9 17 0 0.0 0.0
a 9 35 0 364449.0 205045.0
a 9 35 0 0.0 0.0
a 9 35 0 0.0 0.0
a 10 28 0 364449.0 367498.0
a 10 9 0 0.0 0.0
a 10 5 0 0.0 0.0
a 10 8 0 0.0 0.0
a 10 9 0 0.0 0.0
a 10 5 0 0.0 0.0
a 10 5 0 364449.0 374871.0
a 10 5 0 364449.0 385751.0
a 10 8 0 0.0 0.0
a 10 8 0 364449.0 2.0
a 10 8 0 364449.0 2.0
a 10 9 0 364449.0 3.0
a 10 9 0 364449.0 3.0
a 10 11 0 364449.0 1.0
a 10 12 0 145516.0 1.0
a 10 28 0 364449.0 365932.0
a 10 11 0 364449.0 1.0
a 10 11 0 0.0 0.0
a 10 11 0 0.0 0.0
a 10 12 0 457336.0 1.0
a 10 12 0 0.0 0.0
a 10 12 0 -935460.0 0.0
a 10 28 0 0.0 0.0
a 10 28 0 0.0 0.0
a 11 21 0 364449.0 380958.0
a 11 8 0 0.0 0.0
a 11 9 0 0.0 0.0
a 11 10 0 0.0 0.0
a 11 8 0 0.0 0.0
a 11 8 0 364449.0 2.0
a 11 8 0 364449.0 2.0
a 11 9 0 0.0 0.0
a 11 9 0 364449.0 3.0
a 11 9 0 364449.0 2.0
a 11 10 0 0.0 0.0
a 11 10 0 364449.0 1.0
a 11 10 0 364449.0 1.0
a 11 12 0 769156.0 1.0
a 11 21 0 364449.0 377396.0
a 11 31 0 364449.0 365062.0
a 11 38 0 364449.0 365680.0
a 11 12 0 769156.0 1.0
a 11 12 0 0.0 0.0
a 11 12 0 0.0 0.0
a 11 21 0 0.0 0.0
a 11 21 0 0.0 0.0
a 11 31 0 364449.0 363320.0
a 11 31 0 0.0 0.0
a 11 31 0 0.0 0.0
a 11 38 0 364449.0 365455.0
a 11 38 0 0.0 0.0
a 11 38 0 0.0 0.0
a 12 8 0 0.0 0.0
a 12 8 0 769156.0 1.0
a 12 9 0 0.0 0.0
a 12 10 0 623640.0 0.0
a 12 11 0 0.0 0.0
a 12 8 0 0.0 0.0
a 12 8 0 769156.0 1.0
a 12 9 0 -228668.0 0.0
a 12 9 0 311820.0 1.0
a 12 9 0 83152.0 1.0
a 12 10 0 311820.0 0.0
a 12 10 0 769156.0 1.0
a 12 10 0 1704616.0 1.0
a 12 11 0 0.0 0.0
a 12 11 0 769156.0 1.0
a 12 11 0 769156.0 1.0
a 13 14 0 728897.0 1.0
a 13 14 0 728897.0 1.0
a 13 15 0 769156.0 1.0
a 13 31 0 364449.0 431658.0
a 13 35 0 364449.0 131724.0
a 13 38 0 364449.0 442120.0
a 13 14 0 10394.0 0.0
a 13 14 0 31182.0 0.0
a 13 15 0 769156.0 1.0
a 13 15 0 0.0 0.0
a 13 15 0 0.0 0.0
a 13 31 0 364449.0 433450.0
a 13 31 0 0.0 0.0
a 13 31 0 0.0 0.0
a 13 35 0 364449.0 134271.0
a 13 35 0 0.0 0.0
a 13 35 0 0.0 0.0
a 13 38 0 364449.0 433401.0
a 13 38 0 0.0 0.0
a 13 38 0 0.0 0.0
a 14 15 0 769156.0 1.0
a 14 13 0 0.0 0.0
a 14 3 0 0.0 0.0
a 14 9 0 145516.0 0.0
a 14 13 0 0.0 0.0
a 14 3 0 0.0 0.0
a 14 3 0 364449.0 52131.0
a 14 3 0 364449.0 52849.0
a 14 9 0 72758.0 0.0
a 14 9 0 364449.0 75227.0
a 14 9 0 582723.0 75820.0
a 14 13 0 718503.0 1.0
a 14 13 0 697715.0 1.0
a 14 15 0 769156.0 1.0
a 14 42 0 250115.0 4349.0
a 14 47 0 364449.0 327782.0
a 14 15 0 0.0 0.0
a 14 15 0 0.0 0.0
a 14 42 0 307282.0 4336.0
a 14 42 0 0.0 0.0
a 14 42 0 -171501.0 0.0
a 14 47 0 364449.0 327221.0
a 14 47 0 0.0 0.0
a 14 47 0 0.0 0.0
a 15 14 0 0.0 0.0
a 15 13 0 0.0 0.0
a 15 14 0 0.0 0.0
a 15 13 0 0.0 0.0
a 15 13 0 769156.0 1.0
a 15 13 0 769156.0 1.0
a 15 14 0 769156.0 1.0
a 15 14 0 769156.0 1.0
a 16 17 0 728897.0 1.0
a 16 2 0 0.0 0.0
a 16 2 0 364449.0 121226.0
a 16 2 0 364449.0 117551.0
a 16 2 0 0.0 0.0
a 16 17 0 728897.0 1.0
a 16 18 0 769156.0 1.0
a 16 18 0 0.0 0.0
a 16 39 0 364449.0 496447.0
a 16 17 0 0.0 0.0
a 16 17 0 0.0 0.0
a 16 18 0 769156.0 1.0
a 16 18 0 0.0 0.0
a 16 39 0 364449.0 498676.0
a 16 39 0 0.0 0.0
a 16 39 0 0.0 0.0
a 17 45 0 364449.0 63524.0
a 17 16 0 0.0 0.0
a 17 9 0 0.0 0.0
a 17 16 0 0.0 0.0
a 17 9 0 0.0 0.0
a 17 9 0 364449.0 141551.0
a 17 9 0 364449.0 142261.0
a 17 16 0 728897.0 1.0
a 17 16 0 728897.0 1.0
a 17 18 0 769156.0 1.0
a 17 34 0 364449.0 63457.0
a 17 45 0 364449.0 63386.0
a 17 18 0 769156.0 1.0
a 17 18 0 0.0 0.0
a 17 18 0 0.0 0.0
a 17 34 0 0.0 0.0
a 17 34 0 0.0 0.0
a 17 34 0 364449.0 62973.0
a 17 45 0 0.0 0.0
a 17 45 0 0.0 0.0
a 18 16 0 0.0 0.0
a 18 16 0 769156.0 1.0
a 18 17 0 0.0 0.0
a 18 16 0 0.0 0.0
a 18 16 0 769156.0 1.0
a 18 17 0 0.0 0.0
a 18 17 0 769156.0 1.0
a 18 17 0 769156.0 1.0
a 19 20 0 364449.0 1.0
a 19 20 0 364449.0 1.0
a 19 21 0 364449.0 1.0
a 19 22 0 364449.0 1.0
a 19 23 0 769156.0 1.0
a 19 23 0 0.0 0.0
a 19 40 0 364449.0 22149.0
a 19 20 0 0.0 0.0
a 19 20 0 0.0 0.0
a 19 21 0 364449.0 1.0
a 19 21 0 0.0 0.0
a 19 21 0 0.0 0.0
a 19 22 0 364449.0 1.0
a 19 22 0 0.0 0.0
a 19 22 0 0.0 0.0
a 19 23 0 769156.0 1.0
a 19 23 0 0.0 0.0
a 19 40 0 364449.0 21880.0
a 19 40 0 0.0 0.0
a 19 40 0 0.0 0.0
a 20 19 0 0.0 0.0
a 20 1 0 0.0 0.0
a 20 5 0 0.0 0.0
a 20 19 0 0.0 0.0
a 20 1 0 0.0 0.0
a 20 1 0 364449.0 408898.0
a 20 1 0 364449.0 402908.0
a 20 5 0 0.0 0.0
a 20 5 0 364449.0 3249.0
a 20 5 0 364449.0 3265.0
a 20 19 0 364449.0 1.0
a 20 19 0 364449.0 1.0
a 20 21 0 364449.0 1.0
a 20 22 0 364449.0 1.0
a 20 23 0 769156.0 1.0
a 20 21 0 364449.0 1.0
a 20 21 0 0.0 0.0
a 20 21 0 0.0 0.0
a 20 22 0 364449.0 1.0
a 20 22 0 0.0 0.0
a 20 22 0 0.0 0.0
a 20 23 0 769156.0 1.0
a 20 23 0 0.0 0.0
a 20 23 0 0.0 0.0
a 21 22 0 364449.0 1.0
a 21 11 0 0.0 0.0
a 21 11 0 0.0 0.0
a 21 19 0 0.0 0.0
a 21 20 0 0.0 0.0
a 21 11 0 364449.0 377396.0
a 21 11 0 364449.0 380958.0
a 21 19 0 0.0 0.0
a 21 19 0 364449.0 1.0
a 21 19 0 364449.0 1.0
a 21 20 0 0.0 0.0
a 21 20 0 364449.0 1.0
a 21 20 0 364449.0 1.0
a 21 22 0 364449.0 1.0
a 21 23 0 769156.0 1.0
a 21 22 0 0.0 0.0
a 21 22 0 0.0 0.0
a 21 23 0 769156.0 1.0
a 21 23 0 0.0 0.0
a 21 23 0 0.0 0.0
a 22 21 0 0.0 0.0
a 22 19 0 0.0 0.0
a 22 20 0 0.0 0.0
a 22 21 0 0.0 0.0
a 22 19 0 0.0 0.0
a 22 19 0 364449.0 1.0
a 22 19 0 364449.0 1.0
a 22 20 0 0.0 0.0
a 22 20 0 364449.0 1.0
a 22 20 0 364449.0 1.0
a 22 21 0 364449.0 1.0
a 22 21 0 364449.0 1.0
a 22 23 0 769156.0 1.0
a 22 27 0 364449.0 22413.0
a 22 23 0 769156.0 1.0
a 22 23 0 0.0 0.0
a 22 23 0 0.0 0.0
a 22 27 0 364449.0 22174.0
a 22 27 0 0.0 0.0
a 22 27 0 0.0 0.0
a 23 19 0 0.0 0.0
a 23 19 0 769156.0 1.0
a 23 20 0 0.0 0.0
a 23 21 0 0.0 0.0
a 23 22 0 0.0 0.0
a 23 19 0 0.0 0.0
a 23 19 0 769156.0 1.0
a 23 20 0 0.0 0.0
a 23 20 0 769156.0 1.0
a 23 20 0 769156.0 1.0
a 23 21 0 0.0 0.0
a 23 21 0 769156.0 1.0
a 23 21 0 769156.0 1.0
a 23 22 0 0.0 0.0
a 23 22 0 769156.0 1.0
a 23 22 0 769156.0 1.0
a 24 30 0 364449.0 758666.0
a 24 25 0 364449.0 1.0
a 24 26 0 769156.0 1.0
a 24 30 0 364449.0 754867.0
a 24 47 0 364449.0 1.0
a 24 48 0 364449.0 1.0
a 24 25 0 364449.0 1.0
a 24 25 0 0.0 0.0
a 24 25 0 0.0 0.0
a 24 26 0 769156.0 1.0
a 24 26 0 0.0 0.0
a 24 26 0 0.0 0.0
a 24 30 0 0.0 0.0
a 24 30 0 0.0 0.0
a 24 47 0 364449.0 1.0
a 24 47 0 0.0 0.0
a 24 47 0 0.0 0.0
a 24 48 0 364449.0 1.0
a 24 48 0 0.0 0.0
a 24 48 0 0.0 0.0
a 25 26 0 769156.0 1.0
a 25 8 0 0.0 0.0
a 25 24 0 0.0 0.0
a 25 8 0 0.0 0.0
a 25 8 0 364449.0 395716.0
a 25 8 0 364449.0 397223.0
a 25 24 0 0.0 0.0
a 25 24 0 364449.0 1.0
a 25 24 0 364449.0 1.0
a 25 26 0 769156.0 1.0
a 25 47 0 364449.0 1.0
a 25 48 0 364449.0 1.0
a 25 26 0 0.0 0.0
a 25 26 0 0.0 0.0
a 25 47 0 364449.0 1.0
a 25 47 0 0.0 0.0
a 25 47 0 0.0 0.0
a 25 48 0 364449.0 1.0
a 25 48 0 0.0 0.0
a 25 48 0 0.0 0.0
a 26 25 0 0.0 0.0
a 26 24 0 0.0 0.0
a 26 25 0 0.0 0.0
a 26 24 0 0.0 0.0
a 26 24 0 769156.0 1.0
a 26 24 0 769156.0 1.0
a 26 25 0 769156.0 1.0
a 26 25 0 769156.0 1.0
a 26 47 0 769156.0 1.0
a 26 48 0 769156.0 1.0
a 26 47 0 769156.0 1.0
a 26 47 0 0.0 0.0
a 26 47 0 0.0 0.0
a 26 48 0 769156.0 1.0
a 26 48 0 0.0 0.0
a 26 48 0 0.0 0.0
a 27 3 0 0.0 0.0
a 27 3 0 0.0 0.0
a 27 22 0 0.0 0.0
a 27 3 0 364449.0 390156.0
a 27 3 0 364449.0 394061.0
a 27 22 0 0.0 0.0
a 27 22 0 364449.0 22174.0
a 27 22 0 364449.0 22413.0
a 27 28 0 364449.0 1.0
a 27 29 0 364449.0 1.0
a 27 30 0 364449.0 1.0
a 27 31 0 364449.0 1.0
a 27 32 0 364449.0 1.0
a 27 33 0 769156.0 1.0
a 27 33 0 0.0 0.0
a 27 43 0 364449.0 7343.0
a 27 43 0 0.0 0.0
a 27 28 0 364449.0 1.0
a 27 28 0 0.0 0.0
a 27 28 0 0.0 0.0
a 27 29 0 364449.0 1.0
a 27 29 0 0.0 0.0
a 27 29 0 0.0 0.0
a 27 30 0 364449.0 1.0
a 27 30 0 0.0 0.0
a 27 30 0 0.0 0.0
a 27 31 0 364449.0 1.0
a 27 31 0 0.0 0.0
a 27 31 0 0.0 0.0
a 27 32 0 364449.0 1.0
a 27 32 0 0.0 0.0
a 27 32 0 0.0 0.0
a 27 33 0 769156.0 1.0
a 27 33 0 0.0 0.0
a 27 43 0 364449.0 7589.0
a 27 43 0 0.0 0.0
a 28 10 0 0.0 0.0
a 28 10 0 0.0 0.0
a 28 27 0 0.0 0.0
a 28 10 0 364449.0 365932.0
a 28 10 0 364449.0 367498.0
a 28 27 0 0.0 0.0
a 28 27 0 364449.0 1.0
a 28 27 0 364449.0 1.0
a 28 29 0 364449.0 1.0
a 28 30 0 364449.0 4.0
a 28 31 0 364449.0 1.0
a 28 32 0 364449.0 1.0
a 28 33 0 769156.0 1.0
a 28 37 0 364449.0 410.0
a 28 46 0 364449.0 385.0
a 28 29 0 364449.0 1.0
a 28 29 0 0.0 0.0
a 28 29 0 0.0 0.0
a 28 30 0 364449.0 1.0
a 28 30 0 0.0 0.0
a 28 30 0 0.0 0.0
a 28 31 0 364449.0 1.0
a 28 31 0 0.0 0.0
a 28 31 0 0.0 0.0
a 28 32 0 364449.0 1.0
a 28 32 0 0.0 0.0
a 28 32 0 0.0 0.0
a 28 33 0 769156.0 1.0
a 28 33 0 0.0 0.0
a 28 33 0 0.0 0.0
a 28 37 0 364449.0 455.0
a 28 37 0 0.0 0.0
a 28 37 0 0.0 0.0
a 28 46 0 364449.0 354.0
a 28 46 0 0.0 0.0
a 28 46 0 0.0 0.0
a 29 6 0 0.0 0.0
a 29 6 0 0.0 0.0
a 29 27 0 0.0 0.0
a 29 28 0 0.0 0.0
a 29 6 0 364449.0 21054.0
a 29 6 0 364449.0 21087.0
a 29 27 0 0.0 0.0
a 29 27 0 364449.0 1.0
a 29 27 0 364449.0 1.0
a 29 28 0 0.0 0.0
a 29 28 0 364449.0 1.0
a 29 28 0 364449.0 1.0
a 29 30 0 364449.0 2.0
a 29 31 0 364449.0 1.0
a 29 32 0 364449.0 1.0
a 29 33 0 769156.0 1.0
a 29 40 0 364449.0 377.0
a 29 43 0 364449.0 7632.0
a 29 30 0 364449.0 1.0
a 29 30 0 0.0 0.0
a 29 30 0 0.0 0.0
a 29 31 0 364449.0 1.0
a 29 31 0 0.0 0.0
a 29 31 0 0.0 0.0
a 29 32 0 364449.0 1.0
a 29 32 0 0.0 0.0
a 29 32 0 0.0 0.0
a 29 33 0 769156.0 1.0
a 29 33 0 0.0 0.0
a 29 33 0 0.0 0.0
a 29 40 0 364449.0 400.0
a 29 40 0 0.0 0.0
a 29 40 0 0.0 0.0
a 29 43 0 364449.0 7291.0
a 29 43 0 0.0 0.0
a 29 43 0 0.0 0.0
a 30 31 0 364449.0 1.0
a 30 24 0 0.0 0.0
a 30 24 0 0.0 0.0
a 30 27 0 0.0 0.0
a 30 28 0 0.0 0.0
a 30 29 0 0.0 0.0
a 30 24 0 364449.0 754867.0
a 30 24 0 364449.0 758666.0
a 30 27 0 0.0 0.0
a 30 27 0 364449.0 1.0
a 30 27 0 364449.0 1.0
a 30 28 0 0.0 0.0
a 30 28 0 364449.0 1.0
a 30 28 0 364449.0 4.0
a 30 29 0 0.0 0.0
a 30 29 0 364449.0 1.0
a 30 29 0 364449.0 2.0
a 30 31 0 364449.0 1.0
a 30 32 0 364449.0 1.0
a 30 33 0 769156.0 1.0
a 30 44 0 364449.0 5209.0
a 30 31 0 0.0 0.0
a 30 31 0 0.0 0.0
a 30 32 0 364449.0 1.0
a 30 32 0 0.0 0.0
a 30 32 0 0.0 0.0
a 30 33 0 769156.0 1.0
a 30 33 0 0.0 0.0
a 30 33 0 0.0 0.0
a 30 44 0 364449.0 5618.0
a 30 44 0 0.0 0.0
a 30 44 0 0.0 0.0
a 31 32 0 364449.0 1.0
a 31 30 0 0.0 0.0
a 31 11 0 0.0 0.0
a 31 13 0 0.0 0.0
a 31 27 0 0.0 0.0
a 31 28 0 0.0 0.0
a 31 29 0 0.0 0.0
a 31 30 0 0.0 0.0
a 31 11 0 0.0 0.0
a 31 11 0 364449.0 363320.0
a 31 11 0 364449.0 365062.0
a 31 13 0 0.0 0.0
a 31 13 0 364449.0 433450.0
a 31 13 0 364449.0 431658.0
a 31 27 0 0.0 0.0
a 31 27 0 364449.0 1.0
a 31 27 0 364449.0 1.0
a 31 28 0 0.0 0.0
a 31 28 0 364449.0 1.0
a 31 28 0 364449.0 1.0
a 31 29 0 0.0 0.0
a 31 29 0 364449.0 1.0
a 31 29 0 364449.0 1.0
a 31 30 0 364449.0 1.0
a 31 30 0 364449.0 1.0
a 31 32 0 364449.0 1.0
a 31 33 0 769156.0 1.0
a 31 46 0 364449.0 343.0
a 31 32 0 0.0 0.0
a 31 32 0 0.0 0.0
a 31 33 0 769156.0 1.0
a 31 33 0 0.0 0.0
a 31 33 0 0.0 0.0
a 31 46 0 364449.0 383.0
a 31 46 0 0.0 0.0
a 31 46 0 0.0 0.0
a 32 44 0 364449.0 5599.0
a 32 31 0 0.0 0.0
a 32 2 0 0.0 0.0
a 32 27 0 0.0 0.0
a 32 28 0 0.0 0.0
a 32 29 0 0.0 0.0
a 32 30 0 0.0 0.0
a 32 31 0 0.0 0.0
a 32 2 0 0.0 0.0
a 32 2 0 364449.0 389442.0
a 32 2 0 364449.0 387179.0
a 32 27 0 0.0 0.0
a 32 27 0 364449.0 1.0
a 32 27 0 364449.0 1.0
a 32 28 0 0.0 0.0
a 32 28 0 364449.0 1.0
a 32 28 0 364449.0 1.0
a 32 29 0 0.0 0.0
a 32 29 0 364449.0 1.0
a 32 29 0 364449.0 1.0
a 32 30 0 0.0 0.0
a 32 30 0 364449.0 1.0
a 32 30 0 364449.0 1.0
a 32 31 0 364449.0 1.0
a 32 31 0 364449.0 1.0
a 32 33 0 769156.0 1.0
a 32 44 0 364449.0 5228.0
a 32 33 0 769156.0 1.0
a 32 33 0 0.0 0.0
a 32 33 0 0.0 0.0
a 32 44 0 0.0 0.0
a 32 44 0 0.0 0.0
a 33 27 0 0.0 0.0
a 33 27 0 769156.0 1.0
a 33 28 0 0.0 0.0
a 33 29 0 0.0 0.0
a 33 30 0 0.0 0.0
a 33 31 0 0.0 0.0
a 33 32 0 0.0 0.0
a 33 27 0 0.0 0.0
a 33 27 0 769156.0 1.0
a 33 28 0 0.0 0.0
a 33 28 0 769156.0 1.0
a 33 28 0 769156.0 1.0
a 33 29 0 0.0 0.0
a 33 29 0 769156.0 1.0
a 33 29 0 769156.0 1.0
a 33 30 0 0.0 0.0
a 33 30 0 769156.0 1.0
a 33 30 0 769156.0 1.0
a 33 31 0 0.0 0.0
a 33 31 0 769156.0 1.0
a 33 31 0 769156.0 1.0
a 33 32 0 0.0 0.0
a 33 32 0 769156.0 1.0
a 33 32 0 769156.0 1.0
a 34 35 0 728897.0 1.0
a 34 17 0 0.0 0.0
a 34 17 0 364449.0 62973.0
a 34 17 0 364449.0 63457.0
a 34 17 0 0.0 0.0
a 34 35 0 728897.0 1.0
a 34 36 0 769156.0 1.0
a 34 37 0 364449.0 560002.0
a 34 45 0 364449.0 490.0
a 34 35 0 0.0 0.0
a 34 35 0 0.0 0.0
a 34 36 0 769156.0 1.0
a 34 36 0 0.0 0.0
a 34 36 0 0.0 0.0
a 34 37 0 364449.0 595571.0
a 34 37 0 0.0 0.0
a 34 37 0 0.0 0.0
a 34 45 0 364449.0 490.0
a 34 45 0 0.0 0.0
a 34 45 0 0.0 0.0
a 35 36 0 769156.0 1.0
a 35 34 0 0.0 0.0
a 35 9 0 0.0 0.0
a 35 13 0 0.0 0.0
a 35 34 0 0.0 0.0
a 35 9 0 0.0 0.0
a 35 9 0 364449.0 205045.0
a 35 9 0 364449.0 204987.0
a 35 13 0 0.0 0.0
a 35 13 0 364449.0 134271.0
a 35 13 0 364449.0 131724.0
a 35 34 0 728897.0 1.0
a 35 34 0 728897.0 1.0
a 35 36 0 769156.0 1.0
a 35 48 0 364449.0 197106.0
a 35 36 0 0.0 0.0
a 35 36 0 0.0 0.0
a 35 48 0 364449.0 195829.0
a 35 48 0 0.0 0.0
a 35 48 0 0.0 0.0
a 36 35 0 0.0 0.0
a 36 34 0 0.0 0.0
a 36 35 0 0.0 0.0
a 36 34 0 0.0 0.0
a 36 34 0 769156.0 1.0
a 36 34 0 769156.0 1.0
a 36 35 0 769156.0 1.0
a 36 35 0 769156.0 1.0
a 37 38 0 364449.0 1.0
a 37 6 0 0.0 0.0
a 37 28 0 0.0 0.0
a 37 34 0 0.0 0.0
a 37 6 0 0.0 0.0
a 37 6 0 364449.0 20741.0
a 37 6 0 364449.0 20623.0
a 37 28 0 0.0 0.0
a 37 28 0 364449.0 455.0
a 37 28 0 364449.0 410.0
a 37 34 0 0.0 0.0
a 37 34 0 364449.0 595571.0
a 37 34 0 364449.0 560002.0
a 37 38 0 364449.0 5.0
a 37 39 0 364449.0 3.0
a 37 40 0 364449.0 1.0
a 37 41 0 769156.0 1.0
a 37 41 0 0.0 0.0
a 37 46 0 364449.0 29.0
a 37 38 0 0.0 0.0
a 37 38 0 0.0 0.0
a 37 39 0 364449.0 1.0
a 37 39 0 0.0 0.0
a 37 39 0 0.0 0.0
a 37 40 0 364449.0 1.0
a 37 40 0 0.0 0.0
a 37 40 0 0.0 0.0
a 37 41 0 769156.0 1.0
a 37 41 0 0.0 0.0
a 37 46 0 364449.0 29.0
a 37 46 0 0.0 0.0
a 37 46 0 0.0 0.0
a 38 39 0 364449.0 1.0
a 38 37 0 0.0 0.0
a 38 11 0 0.0 0.0
a 38 13 0 0.0 0.0
a 38 37 0 0.0 0.0
a 38 11 0 0.0 0.0
a 38 11 0 364449.0 365455.0
a 38 11 0 364449.0 365680.0
a 38 13 0 0.0 0.0
a 38 13 0 364449.0 433401.0
a 38 13 0 364449.0 442120.0
a 38 37 0 364449.0 5.0
a 38 37 0 364449.0 1.0
a 38 39 0 364449.0 2.0
a 38 40 0 364449.0 1.0
a 38 41 0 769156.0 1.0
a 38 43 0 364449.0 7596.0
a 38 46 0 364449.0 30.0
a 38 39 0 0.0 0.0
a 38 39 0 0.0 0.0
a 38 40 0 364449.0 1.0
a 38 40 0 0.0 0.0
a 38 40 0 0.0 0.0
a 38 41 0 769156.0 1.0
a 38 41 0 0.0 0.0
a 38 41 0 0.0 0.0
a 38 43 0 364449.0 7584.0
a 38 43 0 0.0 0.0
a 38 43 0 0.0 0.0
a 38 46 0 364449.0 30.0
a 38 46 0 0.0 0.0
a 38 46 0 0.0 0.0
a 39 40 0 364449.0 2.0
a 39 38 0 0.0 0.0
a 39 1 0 0.0 0.0
a 39 16 0 0.0 0.0
a 39 37 0 0.0 0.0
a 39 38 0 0.0 0.0
a 39 1 0 0.0 0.0
a 39 1 0 364449.0 396263.0
a 39 1 0 364449.0 390464.0
a 39 16 0 0.0 0.0
a 39 16 0 364449.0 498676.0
a 39 16 0 364449.0 496447.0
a 39 37 0 0.0 0.0
a 39 37 0 364449.0 1.0
a 39 37 0 364449.0 3.0
a 39 38 0 364449.0 2.0
a 39 38 0 364449.0 1.0
a 39 40 0 364449.0 3.0
a 39 41 0 769156.0 1.0
a 39 44 0 364449.0 5608.0
a 39 40 0 0.0 0.0
a 39 40 0 0.0 0.0
a 39 41 0 769156.0 1.0
a 39 41 0 0.0 0.0
a 39 41 0 0.0 0.0
a 39 44 0 364449.0 5574.0
a 39 44 0 0.0 0.0
a 39 44 0 0.0 0.0
a 40 46 0 364449.0 31.0
a 40 39 0 0.0 0.0
a 40 19 0 0.0 0.0
a 40 29 0 0.0 0.0
a 40 37 0 0.0 0.0
a 40 38 0 0.0 0.0
a 40 39 0 0.0 0.0
a 40 19 0 0.0 0.0
a 40 19 0 364449.0 21880.0
a 40 19 0 364449.0 22149.0
a 40 29 0 0.0 0.0
a 40 29 0 364449.0 400.0
a 40 29 0 364449.0 377.0
a 40 37 0 0.0 0.0
a 40 37 0 364449.0 1.0
a 40 37 0 364449.0 1.0
a 40 38 0 0.0 0.0
a 40 38 0 364449.0 1.0
a 40 38 0 364449.0 1.0
a 40 39 0 364449.0 3.0
a 40 39 0 364449.0 2.0
a 40 41 0 769156.0 1.0
a 40 46 0 364449.0 29.0
a 40 41 0 769156.0 1.0
a 40 41 0 0.0 0.0
a 40 41 0 0.0 0.0
a 40 46 0 0.0 0.0
a 40 46 0 0.0 0.0
a 41 37 0 0.0 0.0
a 41 37 0 769156.0 1.0
a 41 38 0 0.0 0.0
a 41 39 0 0.0 0.0
a 41 40 0 0.0 0.0
a 41 37 0 0.0 0.0
a 41 37 0 769156.0 1.0
a 41 38 0 0.0 0.0
a 41 38 0 769156.0 1.0
a 41 38 0 769156.0 1.0
a 41 39 0 0.0 0.0
a 41 39 0 769156.0 1.0
a 41 39 0 769156.0 1.0
a 41 40 0 0.0 0.0
a 41 40 0 769156.0 1.0
a 41 40 0 769156.0 1.0
a 42 0 0 0.0 0.0
a 42 0 0 364449.0 49207.0
a 42 14 0 114334.0 0.0
a 42 0 0 0.0 0.0
a 42 0 0 364449.0 48303.0
a 42 14 0 57167.0 0.0
a 42 14 0 364449.0 4336.0
a 42 14 0 535950.0 4349.0
a 43 27 0 0.0 0.0
a 43 27 0 364449.0 7589.0
a 43 29 0 0.0 0.0
a 43 38 0 0.0 0.0
a 43 27 0 0.0 0.0
a 43 27 0 364449.0 7343.0
a 43 29 0 0.0 0.0
a 43 29 0 364449.0 7291.0
a 43 29 0 364449.0 7632.0
a 43 38 0 0.0 0.0
a 43 38 0 364449.0 7584.0
a 43 38 0 364449.0 7596.0
a 44 32 0 0.0 0.0
a 44 30 0 0.0 0.0
a 44 32 0 0.0 0.0
a 44 39 0 0.0 0.0
a 44 30 0 0.0 0.0
a 44 30 0 364449.0 5618.0
a 44 30 0 364449.0 5209.0
a 44 32 0 364449.0 5228.0
a 44 32 0 364449.0 5599.0
a 44 39 0 0.0 0.0
a 44 39 0 364449.0 5574.0
a 44 39 0 364449.0 5608.0
a 45 17 0 0.0 0.0
a 45 17 0 0.0 0.0
a 45 34 0 0.0 0.0
a 45 17 0 364449.0 63386.0
a 45 17 0 364449.0 63524.0
a 45 34 0 0.0 0.0
a 45 34 0 364449.0 490.0
a 45 34 0 364449.0 490.0
a 46 40 0 0.0 0.0
a 46 28 0 0.0 0.0
a 46 31 0 0.0 0.0
a 46 37 0 0.0 0.0
a 46 38 0 0.0 0.0
a 46 40 0 0.0 0.0
a 46 28 0 0.0 0.0
a 46 28 0 364449.0 354.0
a 46 28 0 364449.0 385.0
a 46 31 0 0.0 0.0
a 46 31 0 364449.0 383.0
a 46 31 0 364449.0 343.0
a 46 37 0 0.0 0.0
a 46 37 0 364449.0 29.0
a 46 37 0 364449.0 29.0
a 46 38 0 0.0 0.0
a 46 38 0 364449.0 30.0
a 46 38 0 364449.0 30.0
a 46 40 0 364449.0 29.0
a 46 40 0 364449.0 31.0
a 47 48 0 364449.0 1.0
a 47 14 0 0.0 0.0
a 47 24 0 0.0 0.0
a 47 25 0 0.0 0.0
a 47 26 0 0.0 0.0
a 47 14 0 0.0 0.0
a 47 14 0 364449.0 327221.0
a 47 14 0 364449.0 327782.0
a 47 24 0 0.0 0.0
a 47 24 0 364449.0 1.0
a 47 24 0 364449.0 1.0
a 47 25 0 0.0 0.0
a 47 25 0 364449.0 1.0
a 47 25 0 364449.0 1.0
a 47 26 0 0.0 0.0
a 47 26 0 769156.0 1.0
a 47 26 0 769156.0 1.0
a 47 48 0 364449.0 1.0
a 47 48 0 0.0 0.0
a 47 48 0 0.0 0.0
a 48 47 0 0.0 0.0
a 48 24 0 0.0 0.0
a 48 25 0 0.0 0.0
a 48 26 0 0.0 0.0
a 48 35 0 0.0 0.0
a 48 47 0 0.0 0.0
a 48 24 0 0.0 0.0
a 48 24 0 364449.0 1.0
a 48 24 0 364449.0 1.0
a 48 25 0 0.0 0.0
a 48 25 0 364449.0 1.0
a 48 25 0 364449.0 1.0
a 48 26 0 0.0 0.0
a 48 26 0 769156.0 1.0
a 48 26 0 769156.0 1.0
a 48 35 0 0.0 0.0
a 48 35 0 364449.0 195829.0
a 48 35 0 364449.0 197106.0
a 48 47 0 364449.0 1.0
a 48 47 0 364449.0 1.0
